p cnf 22 52
a 21 5 0
e 1 2 3 4 6 7 8 9 10 11 12 13 14 15 16 17 18 19 20 22 0
-1 2 -3 0
1 -2 -3 0
-1 -2 3 0
1 2 3 0
-6 -4 0
-6 5 0
4 -5 6 0
8 6 0
8 7 0
-6 -7 -8 0
9 3 0
9 8 0
-3 -8 -9 0
11 10 0
11 -4 0
-10 4 -11 0
12 11 0
12 5 0
-11 -5 -12 0
13 10 -14 0
-13 -10 -14 0
13 -10 14 0
-13 10 14 0
12 -14 -15 0
-12 14 -15 0
12 14 15 0
-12 -14 15 0
-17 -1 0
-17 16 0
1 -16 17 0
18 17 0
18 -2 0
-17 2 -18 0
19 15 0
19 -18 0
-15 18 -19 0
20 9 0
20 -19 0
-9 19 -20 0
-4 -5 -21 0
4 5 -21 0
-4 5 21 0
4 -5 21 0
22 -20 0
22 21 0
20 -21 -22 0
-17 9 22 3 2 -16 0
12 1 -18 -17 4 5 0
-8 -17 15 -19 0
-6 -8 -12 -2 9 0
-20 -22 16 0
22 0
